param target := 138457;
set E := 1 2 3 4 5 6 7 8 9 10 11 12 13 14 ;
param weight := 
  1  1
  2  2
  3  7
  4  14
  5  49
  6  98
  7  343
  8  686
  9  2409
  10  2793
  11  16808
  12  17206
  13  117705
  14  117993
;
